#Generated by Multiwfn (http://sobereva.com/multiwfn)
&GLOBAL
  PROJECT 2arg-2cl
  PRINT_LEVEL LOW
  RUN_TYPE MD
&END GLOBAL

&FORCE_EVAL
  METHOD Quickstep
  &SUBSYS
    &CELL
      A    30.01100000     0.00000000     0.00000000
      B     0.00000000    30.07200100     0.00000000
      C     0.00000000     0.00000000    30.02599900
      PERIODIC XYZ #Direction(s) of applied PBC (geometry aspect)
    &END CELL
    &COORD
      C          14.69000000    2.89100000   10.70400000
      O          15.20000000    3.73600000   11.45300000
      C          15.54500000    1.87900000    9.97400000
      H          16.09300000    1.27600000   10.68500000
      H          14.92100000    1.23200000    9.37500000
      H          16.24700000    2.38500000    9.32900000
      N          13.23100000    2.87300000   10.52200000
      C          12.66200000    3.95700000   11.34300000
      C          11.38100000    3.59900000   12.07500000
      O          10.46500000    2.99900000   11.52100000
      C          12.53500000    5.18000000   10.47800000
      C          11.97900000    6.48300000   11.13900000
      C          12.26800000    7.64800000   10.21700000
      N          11.34500000    7.63900000    9.09300000
      C          10.13100000    8.23500000    8.99100000
      N           9.47000000    8.65900000   10.01900000
      N           9.56700000    8.44600000    7.91300000
      H          12.71200000    2.23300000    9.93900000
      H          13.40500000    4.19600000   12.10300000
      H          13.52700000    5.37500000   10.07300000
      H          11.93000000    4.85300000    9.63200000
      H          10.91300000    6.28000000   11.23300000
      H          12.41200000    6.57100000   12.13500000
      H          12.17700000    8.61200000   10.71900000
      H          13.26900000    7.70300000    9.78900000
      H          11.77300000    7.59100000    8.17900000
      H           9.88700000    8.71800000   10.93700000
      H           8.54200000    8.99000000    9.79900000
      H           9.74500000    7.96000000    7.04600000
      H           8.85000000    9.15000000    7.81300000
      N          11.23400000    3.98200000   13.48700000
      H          12.02500000    4.48100000   13.90300000
      H          10.43800000    3.81100000   14.10000000
      C           6.26900000   15.54100000    7.50500000
      O           5.95700000   15.61600000    8.70100000
      C           5.21700000   15.33800000    6.43700000
      H           4.51000000   16.15399900    6.45400000
      H           5.68200000   15.29900000    5.46200000
      H           4.68900000   14.41200000    6.61000000
      N           7.68300000   15.65100000    7.11800000
      C           8.44000000   15.83600000    8.32100000
      C           9.58700000   16.86300100    8.25000000
      O          10.34600000   16.82600000    7.23800000
      C           8.99000000   14.46100000    8.81700000
      C           7.95400000   13.39700000    9.08200000
      C           6.96100000   13.58600000   10.28900000
      N           7.74400000   13.71700000   11.52400000
      C           8.42000000   12.64400000   12.12900000
      N           8.49700000   11.51800000   11.65500000
      N           8.89600000   12.84900000   13.28800000
      H           8.05200000   15.60500000    6.17900000
      H           7.77700000   16.15300000    9.12600000
      H           9.64700000   14.03300000    8.06000000
      H           9.58500000   14.51100000    9.72900000
      H           7.26700000   13.31300000    8.24000000
      H           8.45300000   12.42900000    9.03300000
      H           6.31100000   14.44900000   10.14700000
      H           6.29600000   12.72800000   10.38100000
      H           7.56100000   14.52800000   12.09800000
      H           8.13800000   11.40000000   10.71900000
      H           9.14300000   10.88600000   12.10600000
      H           8.84100000   13.78600000   13.66000000
      H           9.56400000   12.14700000   13.57400000
      N           9.79200000   17.85000000    9.32000000
      H           9.13300000   17.80999900   10.10200000
      H          10.51200000   18.57000000    9.37600000
      Cl          3.36000000    7.95400000    9.06400000
      Cl         14.14400000   12.52100000   14.45700000
      O          19.42799900   12.66900000    3.45700000
      H          20.00200100   13.43800000    3.45000000
      H          19.31100100   12.36400000    4.36000000
      O          11.93500000   -0.06600000   11.70100000
      H          12.73400000    0.21200000   12.15600000
      H          11.16800000    0.17000000   12.22800000
      O           8.72600000    8.50900000    0.00000000
      H           8.54900000    7.74400000    0.55300000
      H           8.90100000    9.27200000    0.55500000
      O          10.42300000    7.79300000   17.09600100
      H           9.68000000    8.38800000   17.22200000
      H          11.17500000    8.10600000   17.60300100
      O           1.57300000   17.17900100    8.60700000
      H           0.66000000   17.01000000    8.85100000
      H           2.14300000   16.53200000    9.02900000
      O          12.52700000    0.06600000   18.05999900
      H          12.72800000    0.94100000   17.71900000
      H          11.58200000   -0.01200000   18.20599900
      O           9.09000000   15.62700000   16.39900000
      H           9.14700000   14.80100000   16.88600000
      H           9.04800000   16.36000100   17.01700000
      O          19.37000100   14.52700000    8.38900000
      H          20.00099900   14.21500000    7.73600000
      H          18.48399900   14.49000000    8.02200000
      O          16.53100000   20.00099900    6.68500000
      H          16.67100000   19.40200000    7.42200000
      H          15.60200000   20.00000000    6.44300000
      O          14.24900000   19.89200000    0.05100000
      H          15.20200000   20.00000000    0.00400000
      H          13.98200000   19.79500000    0.96800000
      O          -0.00200000   11.29100000    6.34700000
      H           0.00000000   12.08100000    6.89200000
      H           0.00100000   10.51300000    6.90900000
      O           9.38500000    1.61200000   19.44400000
      H          10.11200000    1.88100000   20.00900100
      H           8.63100000    1.36600000   19.98600000
      O          19.91300000    8.60000000    3.65100000
      H          20.00000000    7.90900000    4.31200000
      H          20.00000000    9.45900000    4.07200000
      O          20.00700000    4.34700000   19.55600000
      H          19.91900100    3.49900000   19.99600000
      H          19.45999900    4.99800000   20.00200100
      O           7.50100000    0.01600000    3.99200000
      H           6.66500000    0.44300000    3.79400000
      H           8.04800000   -0.00100000    3.20300000
      O          16.86000100   -0.00200000    5.35500000
      H          17.35800000    0.10900000    4.54200000
      H          15.92400000    0.10800000    5.17500000
      O          20.00099900   11.01600000    7.74900000
      H          19.21299900   11.35500000    8.18000000
      H          19.78900000   10.75900000    6.84900000
      O           0.00000000    0.55000000   18.94899900
      H           0.07300000    0.00000000   19.73200000
      H           0.05800000    0.00000000   18.16400000
      O           5.76800000    0.23200000   19.09199900
      H           4.86000000   -0.00300000   18.88699900
      H           5.96100000   -0.00100000   20.00300000
      O          15.15500000   16.33900100   12.69400000
      H          14.87300000   17.17000000   13.08400000
      H          14.87600000   15.61100000   13.25400000
      O          16.95500000   12.98600000   10.11900000
      H          17.04100000   12.12700000   10.53900000
      H          17.03700100   13.67600000   10.78200000
      O           0.00000000   13.69800000    3.23300000
      H           0.41900000   14.56200000    3.24400000
      H           0.62900000   13.03300000    3.52300000
      O           8.30600000   17.96999900   19.43700000
      H           8.99700000   17.58499900   19.98200000
      H           7.62100000   18.33700000   20.00000000
      O          19.92000000   18.21800000   10.77000000
      H          19.31800100   17.62500000   11.22500000
      H          20.00000000   17.95000100    9.85100000
      O          20.00099900   19.30299900   16.28200000
      H          19.99000000   18.96299900   15.38500000
      H          19.34700000   20.00099900   16.36800000
      O          16.78400000   19.64500000   10.41000000
      H          16.11599900   19.29299900   11.00200000
      H          17.51300000   20.00099900   10.92400000
      O          12.92700000   10.83100000    3.03400000
      H          12.21900000   11.43300000    2.79600000
      H          13.05400000   10.19100000    2.32900000
      O           0.15300000    0.90100000   14.53900000
      H           0.10900000   -0.00100000   14.21500000
      H          -0.00100000    1.51100000   13.81400000
      O          17.50099900    7.42300000    6.19300000
      H          17.28900000    7.10600000    5.31200000
      H          17.68199900    8.36500000    6.16000000
      O          19.52899900    1.62800000   17.23500100
      H          20.00400000    0.94900000   16.75000000
      H          19.99900100    2.46200000   17.16099900
      O          15.16100000    4.49300000    0.15600000
      H          16.04200000    4.87500000    0.14900000
      H          14.92200000    4.25500000    1.05400000
      O           4.95100000    9.19700000   11.55700000
      H           4.13500000    9.70100000   11.59900000
      H           5.68500000    9.79000000   11.37700000
      O           0.63800000    9.42400000   11.64900000
      H           1.28700000    8.97300000   12.19500000
      H           0.00000000    9.86900000   12.21100000
      O          19.67499900    8.20300000   17.88299900
      H          20.00499900    8.05200000   16.99399900
      H          20.00200100    7.51600000   18.46699900
      O           1.85200000    0.31600000    8.14400000
      H           2.29100000    0.00000000    7.35100000
      H           2.50100000    0.44800000    8.83900000
      O           7.30900000    0.11600000    7.10300000
      H           7.07900000    1.04400000    7.02100000
      H           8.24000000   -0.00300000    6.90000000
      O          16.66200100   14.95100000    2.16100000
      H          16.96800000   14.13200000    2.55700000
      H          16.19899900   14.75800000    1.34200000
      O          18.37700100    0.00000000    0.55400000
      H          19.16099900    0.00000000    0.00000000
      H          17.59300000    0.00000000    0.00000000
      O           9.23300000   16.98200000    0.92300000
      H           9.10800000   17.21500000    0.00000000
      H           9.95700000   16.35700000    1.00100000
      O          18.17900100    5.13900000   16.71400100
      H          17.84800000    5.96900000   17.06600000
      H          19.08799900    5.25300000   16.42799900
      O          15.96900000   13.21700000    6.25100000
      H          15.84100000   14.07300000    6.66500000
      H          16.85300100   13.17000000    5.87900000
      O          19.80800100   15.30700000   16.59199900
      H          20.00000000   16.24500100   16.65600000
      H          20.00099900   14.88200000   17.43100000
      O          11.73800000    0.18600000    7.97500000
      H          11.22600000   -0.00100000    7.18500000
      H          12.66500000   -0.00100000    7.80800000
      O           8.45100000   -0.00200000   16.32300000
      H           8.33700000    0.84000000   15.87700000
      H           8.10800000    0.06000000   17.21699900
      O           7.15300000   19.98300000   17.53500000
      H           7.10300000   20.00000000   16.57600000
      H           6.26700000   20.00000000   17.90300000
      O           6.51500000    5.45100000    0.55500000
      H           6.12100000    4.81100000    1.15100000
      H           7.16400000    5.01400000   -0.00100000
      O           6.40800000   18.76000000    3.88700000
      H           5.48600000   19.01600100    3.96500000
      H           6.60900000   18.08499900    4.54100000
      O           0.91500000    6.29000000    3.29800000
      H           0.00000000    6.45200000    3.05900000
      H           1.01300000    6.34800000    4.25100000
      O           2.88800000    2.94200000   12.77000000
      H           2.45900000    3.21400000   13.58500000
      H           2.86500000    3.66500000   12.13900000
      O          19.19800000   15.48900000   13.66000000
      H          18.47100100   16.01499900   14.00100000
      H          20.00200100   16.01300000   13.66200000
      O           6.23700000    3.25600000    5.17700000
      H           5.59400000    3.16700000    4.47000000
      H           6.07300000    4.07000000    5.65900000
      O           0.83500000   19.88100100   13.99800000
      H           1.55900000   20.00000000   13.37900000
      H          -0.00100000   19.92600100   13.52700000
      O           6.10000000    9.74100000    2.51100000
      H           6.95700000   10.13800000    2.68200000
      H           6.18200000    9.09300000    1.80800000
      O          18.06100100    2.76800000   14.88100000
      H          17.34199900    3.02000000   14.29600000
      H          18.79900000    2.44300000   14.36000000
      O          19.45599900    3.44400000    0.55300000
      H          20.00000000    2.88000000   -0.00100000
      H          18.91200100    4.00800000   -0.00100000
      O           6.01600000   15.54800000    2.21200000
      H           5.38500000   16.16700000    2.58600000
      H           6.46700000   15.95800000    1.47000000
      O           3.16300000   10.42200000    1.68700000
      H           3.14100000    9.53700000    2.05700000
      H           3.46400000   10.38100000    0.77600000
      O           7.94600000    6.01100000   16.64100100
      H           7.19000000    6.23100000   16.09100000
      H           8.59000000    5.52500000   16.12000100
      O           3.90300000   10.23700000   15.13400000
      H           4.24000000    9.40100000   14.80400000
      H           4.60500000   10.89300000   15.12300000
      O          20.00000000   -0.00100000    7.85200000
      H          19.76899900    0.00300000    6.92100000
      H          19.27199900    0.36000000    8.36400000
      O           6.95200000    3.20800000   17.09199900
      H           7.47500000    3.32500000   17.88900000
      H           6.27900000    2.54100000   17.24500100
      O           5.85400000    3.99900000   13.77100000
      H           6.71300000    3.95500000   14.19600000
      H           5.17600000    4.16000000   14.43200000
      O           5.44900000    0.52500000   15.13200000
      H           5.84500000   -0.00200000   14.43500000
      H           5.38000000   -0.00200000   15.93200000
      O           0.02800000    8.17300000    0.56100000
      H           0.40000000    8.86000000    0.00300000
      H           0.00000000    7.34600000    0.07600000
      O          19.35100000    9.69500000   14.57100000
      H          20.00300000    9.10600000   14.18500000
      H          18.81100100   10.07600000   13.87500000
      O           3.42300000    6.80400000    0.65500000
      H           2.99900000    7.36100000   -0.00200000
      H           3.02000000    5.93300000    0.64600000
      O          15.26000000   12.08300000   19.85899900
      H          15.97300000   12.32800000   19.26400000
      H          15.27400000   11.13300000   20.00099900
      O          19.15600000    0.51000000   19.99399900
      H          18.48800100    0.00000000   19.53000100
      H          20.00000000    0.05500000   19.94199900
      O          12.75600000   -0.00400000    3.79700000
      H          12.95800000    0.01900000    4.73500000
      H          13.57300000   -0.00100000    3.29300000
      O          12.55500000   16.91200100   18.61400000
      H          12.34900000   16.85800000   19.54999900
      H          11.74800000   17.06600000   18.11700100
      O           0.00000000   19.48100100    1.88000000
      H           0.37700000   20.00000000    2.59500000
      H           0.00000000   20.00000000    1.07300000
      O          13.71200000   19.49300000   16.05500000
      H          14.52000000   20.00099900   16.16400000
      H          13.89700000   18.56200000   16.19899900
      O           5.79000000   19.36300100    7.42300000
      H           6.15500000   20.00000000    6.80500000
      H           6.37600000   18.60500000    7.48600000
      O          17.16000000    6.92400000   14.30700000
      H          16.93199900    6.00900000   14.13000000
      H          17.71400100    7.25900000   13.59800000
      O          15.05800000    9.07300000   14.07800000
      H          14.62300000    9.34500000   14.88900000
      H          15.85100000    9.59900000   13.94700000
      O          13.83700000    2.41700000    6.30800000
      H          14.73900000    2.44400000    6.63700000
      H          13.26600000    2.91400000    6.89700000
      O           0.28800000    4.10400000   20.00200100
      H          -0.00200000    3.53000000   19.28900000
      H           0.55800000    4.95200000   19.64200000
      O           7.23600000    6.38700000   12.51900000
      H           7.95800000    6.47400000   13.14500000
      H           7.14300000    7.20200000   12.02200000
      O          12.46100000    3.56100000    3.43600000
      H          12.44100000    2.81800000    2.82800000
      H          12.36300000    4.38000000    2.94600000
      O           8.36000000    1.01400000   12.85900000
      H           8.18800000    0.11600000   12.56500000
      H           7.62600000    1.57900000   12.61000000
      O           5.34700000    0.87000000    9.88100000
      H           5.58800000    0.02300000   10.26400000
      H           5.37500000    1.54800000   10.56000000
      O          15.20800000    7.29500000    3.15900000
      H          15.91200000    7.02900000    2.56300000
      H          14.43400000    7.54700000    2.64900000
      O           4.24400000   17.84400000   19.46400100
      H           4.28700000   17.04900000   20.00000000
      H           4.60400000   18.58400000   19.95900000
      O          17.07799900   17.28900000   -0.00700000
      H          17.92499900   16.84000000    0.04200000
      H          16.85300100   17.64500000    0.85500000
      O           6.78400000   19.74399900   10.92800000
      H           7.08500000   20.00099900   10.05300000
      H           7.44000000   20.00099900   11.58000000
      O           7.31800000   19.58799900    0.40700000
      H           6.49700000   19.30100100    0.00000000
      H           7.12900000   20.00000000    1.25300000
      O           7.28200000    6.94100000   19.44700100
      H           7.51100000    6.19100000   20.00099900
      H           7.05400000    7.69100000   20.00099900
      O          15.60300000    0.68200000   13.58500000
      H          16.25000000   -0.00200000   13.39500000
      H          14.93900000    0.33700000   14.18600000
      O           3.89200000    8.39000000    6.14400000
      H           3.58200000    7.49100000    6.01900000
      H           4.35700000    8.68100000    5.35600000
      O           3.29600000    2.30000000   20.00300000
      H           3.04600000    3.05400000   19.46400100
      H           2.59900000    1.64100000   19.97500000
      O          14.52100000    2.74100000   15.96500000
      H          14.77600000    3.31600000   16.69000100
      H          14.47700000    3.25000000   15.15200000
      O          -0.00300000    8.97400000   15.34100000
      H           0.00500000    8.16500000   14.82300000
      H           0.74700000    9.52000000   15.09500000
      O           8.35100000    1.10400000    9.73700000
      H           8.22500000    2.04800000    9.61900000
      H           9.27000000    0.88000000    9.57500000
      O          16.63400100    3.60800000   19.05100100
      H          16.78300100    3.64400000   19.99900100
      H          17.28200000    3.02700000   18.64600000
      O           5.35900000    9.70600000   17.77199900
      H           5.32100000    9.78200000   18.72900000
      H           5.96900000    9.00500000   17.53100000
      O           9.85200000   20.00099900    6.82400000
      H          10.63900000   19.68400000    6.37500000
      H           9.09700000   19.46800000    6.56200000
      O           4.99100000   15.32700000   13.42600000
      H           4.19200000   15.75100000   13.74500000
      H           5.34900000   14.75800000   14.11100000
      O           2.98900000    0.15700000    1.07400000
      H           3.87200000   -0.00100000    1.41700000
      H           2.98100000   -0.00100000    0.12700000
      O          16.52899900   16.42200100    4.93000000
      H          16.46600000   16.92200100    5.74700000
      H          17.36899900   15.95900000    4.90200000
      O          14.37800000   10.35300000    5.63600000
      H          13.47200000   10.20700000    5.91700000
      H          14.81700000    9.50800000    5.51700000
      O           1.76300000   12.85200000    0.00000000
      H           2.05400000   13.09100000    0.88300000
      H           0.81100000   12.72200000    0.00000000
      O          11.99900000   13.63800000    6.01400000
      H          11.70600000   14.36600000    5.46200000
      H          12.14800000   12.86200000    5.46900000
      O          11.45900000   13.17900000    0.45100000
      H          10.75200000   13.64400000   -0.00300000
      H          11.63800000   12.35000000    0.00000000
      O          15.87700000   14.41800000   17.11400000
      H          16.83600000   14.38800000   17.12599900
      H          15.57200000   14.57600000   16.21699900
      O           2.92100000    1.33700000   17.00799900
      H           2.49800000    0.72400000   16.40200000
      H           3.28400000    2.07600000   16.51400000
      O          17.09600100   12.53700000   13.92300000
      H          17.11200000   12.36300000   14.86700000
      H          16.90700000   13.46600000   13.77100000
      O           3.98500000   18.76700000    9.81800000
      H           3.49300000   19.34400000   10.40800000
      H           4.38100000   18.05400100   10.32400000
      O           5.14200000   19.08099900   13.34900000
      H           4.26300000   18.70900000   13.24900000
      H           5.07200000   20.00000000   13.61800000
      O           1.25500000   14.80200000    6.74500000
      H           0.33700000   15.04800000    6.60500000
      H           1.77100000   15.03200000    5.96900000
      O          19.32500100   10.50800000    0.20100000
      H          20.00099900    9.85600000   -0.00100000
      H          19.33099900   10.69400000    1.14300000
      O          10.01300000    0.05300000    0.75300000
      H          10.17900000    0.73700000    0.10000000
      H          10.64800000    0.13200000    1.46900000
      O          16.52199900   16.53900000    9.78300000
      H          17.20000100   16.92100000    9.22200000
      H          15.92800000   16.00499900    9.25100000
      O           0.23600000    3.86300000   15.66300000
      H           0.53400000    3.26300000   16.34900100
      H          -0.00100000    4.70700000   16.05500000
      O          16.40700000    1.84400000    2.05200000
      H          15.78700000    1.95700000    2.77700000
      H          17.17600100    2.39900000    2.19900000
      O          -0.00200000   18.61500000    6.07000000
      H           0.00000000   17.82600000    5.52300000
      H           0.00500000   19.39399900    5.50900000
      O          15.51000000    0.93100000   19.85600100
      H          15.52700000   -0.01600000   20.00799900
      H          14.62600000    1.26700000   20.01899900
      O           0.41600000    9.41300000    3.30400000
      H          -0.00100000   10.17000000    2.88600000
      H          -0.00100000    9.24600000    4.15300000
      O           7.92000000    5.56200000    3.82700000
      H           8.69300000    5.52900000    4.39500000
      H           8.14100000    6.01800000    3.01100000
      O          10.31300000   19.09900100   15.89300000
      H          10.94200000   18.45299900   15.56400000
      H          10.50500000   19.95800000   15.50900000
      O          13.68600000   15.69700000    0.00200000
      H          12.74400000   15.88700000   -0.00200000
      H          14.17900000   16.52100000   -0.00300000
      O           0.00000000    0.02600000    4.87400000
      H           0.40400000    0.84200000    5.17700000
      H           0.01000000    0.00000000    3.91400000
      O           8.68200000   10.14600000   19.43800000
      H           8.06100000   10.61500000   20.00000000
      H           9.31000000    9.66800000   19.98300000
      O          15.20200000   11.93400000    1.16800000
      H          14.59400000   12.26600000    0.50300000
      H          16.07099900   11.81500000    0.77700000
      O          19.65399900    0.86700000   11.47200000
      H          18.79299900    0.74600000   11.88000000
      H          20.00099900    1.73100000   11.70500000
      O          11.10800000   11.06000000    8.75700000
      H          11.89800000   10.61700000    8.43800000
      H          11.35600000   11.75400000    9.37200000
      O          10.24300000   17.39699900    3.80000000
      H           9.55200000   18.04400100    3.96200000
      H           9.91900000   16.52000000    4.01700000
      O          19.13900000   16.93100000   19.44599900
      H          18.35899900   17.00799900   20.00099900
      H          19.91900100   16.85300100   20.00000000
      O           0.12800000   17.10000000   15.44900000
      H           0.00000000   16.15700000   15.57500000
      H           1.06200000   17.30999900   15.52600000
      O           0.42400000   12.99300000   13.43200000
      H          -0.00100000   13.55200000   14.08800000
      H           0.85500000   12.25500000   13.87000000
      O          16.58200100    0.54100000   16.73000000
      H          15.84700000   -0.00200000   17.02500000
      H          17.20400000   -0.00100000   16.23900000
      O           0.03600000   16.58200100    0.76700000
      H           0.00000000   15.66500000    0.48600000
      H           0.14800000   17.14800100    0.00000000
      O          15.32900000    5.45100000    7.67600000
      H          16.24900100    5.30700000    7.91200000
      H          15.13100000    6.38900000    7.71400000
      O           0.02500000    8.68100000   19.33799900
      H           0.00400000    9.45700000   19.90300000
      H           0.00000000    7.88900000   19.88100100
      O           0.79600000   20.00000000    9.26900000
      H           0.00000000   19.99900100    8.73200000
      H           0.55600000   20.00000000   10.19800000
      O          19.24799900   13.63400000    0.55300000
      H          19.99200100   13.88300000   -0.00100000
      H          18.50400000   13.38600000   -0.00100000
      O          12.10900000    6.91000000    4.53700000
      H          11.45700000    6.46800000    5.08600000
      H          12.69600000    7.43000000    5.09100000
      O          11.86400000    7.86400000    0.41800000
      H          11.80400000    8.73600000    0.02200000
      H          11.45500000    7.87700000    1.28600000
      O           0.54600000   14.29100000   10.22300000
      H          -0.00100000   14.61300000   10.94300000
      H           0.00000000   14.14500000    9.44700000
      O           0.27100000    4.05400000    6.35400000
      H          -0.00200000    3.37900000    6.97900000
      H           0.00000000    3.80000000    5.46900000
      O          11.47300000   11.67600000   19.44599900
      H          11.96500000   11.06500000   20.00000000
      H          10.98200000   12.28600000   20.00000000
      O           0.28400000   14.08300000   19.89600000
      H           0.00000000   13.17100000   20.00000000
      H           1.24300000   14.12100000   19.88600000
      O          19.54299900    5.15600000   12.48800000
      H          20.00000000    5.50200000   11.71800000
      H          18.84800000    4.55700000   12.20500000
      O          15.45000000    8.51300000   -0.00300000
      H          14.77000000    9.19000000    0.03600000
      H          16.31600000    8.92700000    0.00200000
      O          17.05100100   17.66500100   17.37900000
      H          16.92400000   18.61200000   17.46400100
      H          16.63999900   17.35700000   16.56800100
      O          19.27700000   19.51800000    0.06800000
      H          18.77700000   19.97800100    0.74600000
      H          19.99000000   19.02199900    0.47500000
      O          19.45000100    7.36100000    8.47500000
      H          20.00200100    6.77800000    9.00100000
      H          20.00099900    8.00900000    8.02900000
      O          13.13700000   10.35400000   17.29100000
      H          13.64700000   11.14100000   17.08499900
      H          13.64700000    9.78500000   17.87200000