#Generated by Multiwfn (http://sobereva.com/multiwfn)
&GLOBAL
  PROJECT 2asp-2na
  PRINT_LEVEL LOW
  RUN_TYPE MD
&END GLOBAL

&FORCE_EVAL
  METHOD Quickstep
  &SUBSYS
    &CELL
      A    30.01700000     0.00000000     0.00000000
      B     0.00000000    30.02900000     0.00000000
      C     0.00000000     0.00000000    30.02300000
      PERIODIC XYZ #Direction(s) of applied PBC (geometry aspect)
    &END CELL
    &COORD
      C          10.44100000    7.25900000    8.05800000
      O           9.88500000    7.82600000    7.10700000
      C           9.63600000    6.69400000    9.20700000
      H           8.94800000    5.94400000    8.84400000
      H          10.29500000    6.24100000    9.93300000
      H           9.07400000    7.48100000    9.68800000
      N          11.90600000    7.13400000    8.06900000
      C          12.41900000    7.78000000    6.81600000
      C          13.52000000    7.07100000    6.12500000
      O          14.47700000    6.62800000    6.82100000
      C          12.83200000    9.17200000    7.20500000
      C          11.74700000    9.98600000    7.77700000
      O          10.82100000   10.37400000    7.09100000
      O          11.74500000   10.20900000    8.96800000
      H          12.46400000    6.69400000    8.78700000
      H          11.64000000    7.72000000    6.05700000
      H          13.70200000    9.16200000    7.86200000
      H          13.15400000    9.53700000    6.22900000
      N          13.50000000    6.88800000    4.66700000
      H          12.69100000    7.27500000    4.17500000
      H          14.19600000    6.42000000    4.08700000
      C           9.33000000   12.98600000   14.01000000
      O           8.79100000   14.09300000   13.87800000
      C          10.59600000   12.82800000   14.82500000
      H          10.42100000   13.13900000   15.84500000
      H          10.91000000   11.79500000   14.82300000
      H          11.38400000   13.43500000   14.40400000
      N           8.73100000   11.80800000   13.36700000
      C           7.49800000   12.26900000   12.63700000
      C           6.30000000   11.29100000   12.77600000
      O           6.48800000   10.06100000   12.63700000
      C           7.82500000   12.44100000   11.11400000
      C           8.80800000   11.48300000   10.40700000
      O           9.24600000   11.80600000    9.27000000
      O           9.18900000   10.41800000   10.91400000
      H           9.08200000   10.86300000   13.40700000
      H           7.28600000   13.25000000   13.06300000
      H           6.86300000   12.29100000   10.62300000
      H           8.10800000   13.48100000   10.95400000
      N           4.95500000   11.80600000   13.06900000
      H           4.87300000   12.82100000   13.17000000
      H           4.09300000   11.27300000   13.18300000
      Na          6.03800000    9.04200000    5.70400000
      Na         14.07800000   11.81500000   12.34100000
      O           4.81600000   14.67900000   17.07900000
      H           4.13600000   15.08800000   17.62000100
      H           5.51300000   14.33800000   17.64399900
      O           0.51900000   19.86000100   17.10700000
      H          -0.00100000   19.05800100   17.01199900
      H           1.02900000   20.00799900   16.30699900
      O          19.36700100   12.10400000    5.57300000
      H          19.83300000   12.69400000    6.17000000
      H          20.00000000   11.66100000    5.00200000
      O          12.77000000    7.96700000   14.89400000
      H          12.46400000    7.07700000   15.08300000
      H          13.62900000    7.92800000   14.46800000
      O           5.16100000    3.68300000   14.48400000
      H           5.26900000    2.74600000   14.30300000
      H           5.80300000    3.95900000   15.14200000
      O          13.22700000    1.32100000    3.40600000
      H          12.73000000    0.53100000    3.63000000
      H          12.62400000    2.00700000    3.11000000
      O          19.13999900   19.84400000    4.82700000
      H          20.00400000   20.00000000    5.21700000
      H          18.45800000   20.00200100    5.48400000
      O          17.13600000   16.78800000    0.67800000
      H          17.24900100   16.37000100    1.53500000
      H          17.52700000   16.23600000   -0.00300000
      O           1.99400000    0.20200000   20.01000000
      H           1.54600000   -0.00400000   19.18600100
      H           2.92700000   -0.00600000   19.92700000
      O           3.48500000    4.41200000    5.14700000
      H           3.92600000    4.85800000    4.42100000
      H           3.50000000    4.97400000    5.92500000
      O          14.27200000   17.07700000    1.52500000
      H          13.49200000   16.96999900    2.07500000
      H          14.02100000   17.03100000    0.59900000
      O          10.23000000   10.78500000   20.00799900
      H          10.00800000   10.22000000   19.26499900
      H          10.14300000   11.70600000   19.74900100
      O          -0.00400000   19.99500100    8.88300000
      H          -0.00300000   19.09700000    8.54500000
      H           0.34500000   20.00200100    9.77700000
      O          20.00300000    5.04900000   19.93899900
      H          19.79800000    5.98600000   19.95800000
      H          19.99300000    4.73600000   19.03200000
      O          12.67800000   19.99600000    9.79000000
      H          12.16500000   20.00300000   10.60100000
      H          13.58100000   19.73300000    9.98400000
      O           9.47700000   19.87400100   11.92700000
      H           8.59600000   20.00200100   12.28500000
      H           9.67400000   18.93499900   11.88700000
      O           6.11400000   12.21000000   19.67200100
      H           6.41300000   11.36000000   20.00099900
      H           6.69100000   12.90300000   20.00099900
      O           0.88700000    0.06100000   11.81000000
      H           0.00500000    0.03500000   11.43200000
      H           1.42300000    0.69600000   11.33000000
      O           2.93000000   18.75300000   11.72100000
      H           3.28500000   18.29299900   10.95700000
      H           2.77900000   19.67400000   11.49900000
      O           4.11000000    0.10700000    9.55300000
      H           4.84100000    0.02600000    8.93500000
      H           3.28100000   -0.01600000    9.08600000
      O           0.91900000   19.82500100   -0.00500000
      H          -0.00100000   20.00099900    0.20200000
      H           1.07300000   18.87700100    0.00000000
      O           9.56900000    6.58700000    3.98800000
      H          10.03300000    6.27500000    3.20900000
      H           9.13000000    7.41800000    3.79000000
      O          18.64900000    6.75000000    0.00000000
      H          19.50300000    6.31200000    0.01500000
      H          18.34000000    6.88000000    0.90000000
      O          19.75600100   16.74200100    9.51500000
      H          20.00099900   17.31600000   10.24400000
      H          18.79900000   16.69700100    9.45000000
      O          20.00099900   11.24000000   16.84600100
      H          19.92900100   10.37000000   16.44899900
      H          19.12200000   11.58700000   17.01899900
      O          17.09700000   19.45000100   11.29200000
      H          16.69199900   19.97900000   11.98400000
      H          16.41400000   18.98900000   10.80000000
      O          19.00799900   15.79700000   12.63300000
      H          18.42000000   15.58600000   13.36200000
      H          18.97500000   15.09500000   11.98000000
      O           5.60300000   12.48100000    3.37400000
      H           5.26000000   12.17900000    4.21800000
      H           6.52700000   12.72300000    3.47100000
      O           1.26600000    7.15500000    5.15700000
      H           2.08000000    7.41300000    4.71900000
      H           0.68800000    6.71700000    4.52700000
      O          19.97100100    5.64200000    6.19100000
      H          19.94899900    4.81300000    5.70900000
      H          19.91700000    6.37400000    5.57200000
      O          -0.00100000   15.16000000    7.48500000
      H           0.00500000   15.85300000    8.15000000
      H           0.00000000   14.30200000    7.91600000
      O           2.91500000    0.86800000    6.24300000
      H           2.81500000   -0.00100000    5.84700000
      H           2.38400000    1.50400000    5.75700000
      O           0.47800000   12.07600000    5.96300000
      H          -0.00100000   11.24700000    6.02700000
      H          -0.00300000   12.68100000    5.39300000
      O           7.62500000    0.39900000    5.55200000
      H           6.94500000   -0.00700000    6.09400000
      H           8.23800000    0.88000000    6.11200000
      O          19.99700000    5.99100000   12.51000000
      H          20.00099900    5.23900000   11.91300000
      H          19.36400000    5.83700000   13.21500000
      O          16.95999900    4.95500000    5.99500000
      H          16.81800100    5.48900000    5.21000000
      H          16.91799900    4.02500000    5.76200000
      O          13.97800000    3.95300000   12.71400000
      H          14.52900000    3.60300000   12.01000000
      H          13.55900000    4.76500000   12.41900000
      O          18.26199900    1.93800000   16.94100000
      H          18.95900000    2.29500000   17.49700000
      H          17.56399900    1.57800000   17.49300000
      O           6.13700000   19.45999900   10.48500000
      H           5.74400000   20.00000000   11.17400000
      H           6.71800000   20.00099900    9.94600000
      O          18.33900100    8.66500000    3.44300000
      H          19.25799900    8.63900000    3.71800000
      H          17.89900000    7.85700000    3.71900000
      O           7.27200000    0.53600000   14.61400000
      H           8.02800000    0.24500000   14.09900000
      H           6.50300000    0.01200000   14.37900000
      O          16.25400000    9.62800000   10.41100000
      H          16.91099900    9.97400000    9.80200000
      H          16.65099900    9.50600000   11.27600000
      O           6.84400000    2.37600000    0.00000000
      H           7.22500000    3.19900000    0.31400000
      H           6.30700000    1.98600000    0.69300000
      O           0.52800000   19.16500100   13.47200000
      H          -0.00200000   18.50499900   13.92500000
      H           0.04000000   19.50700000   12.72000000
      O          10.67100000   14.32300000    0.00000000
      H          11.41100000   14.93500000    0.03600000
      H          10.97900000   13.43600000    0.20000000
      O           0.00900000    5.13900000    6.98900000
      H          -0.00200000    5.89900000    7.57500000
      H          -0.00500000    4.33300000    7.50900000
      O          20.00200100   13.03200000   13.90200000
      H          19.92700000   13.41400000   14.77900000
      H          19.97100100   12.07500000   13.96500000
      O          19.96999900    1.66100000    5.46800000
      H          19.06500100    1.96600000    5.37000000
      H          20.00000000    0.70700000    5.36500000
      O           0.58800000   15.94200000    0.85600000
      H          -0.00200000   16.45800000    1.41000000
      H           0.18000000   15.79900000   -0.00100000
      O          18.92100000    4.31800000    2.49600000
      H          18.56800100    3.98900000    1.66600000
      H          19.86300100    4.47300000    2.40400000
      O           4.52400000    8.20000000   16.72800100
      H           4.75000000    8.05800000   15.80500000
      H           5.24400000    7.89400000   17.28500000
      O           7.80900000    0.00100000   20.00000000
      H           8.64100000    0.42100000   19.77000000
      H           7.22400000    0.00900000   19.23900000
      O          16.17600100    1.44900000    9.95000000
      H          15.71300000    2.22400000    9.62300000
      H          15.77500000    1.16000000   10.77200000
      O           2.04400000    7.88400000    9.09000000
      H           1.45100000    7.43900000    9.70000000
      H           2.52200000    8.57500000    9.55500000
      O          19.98700000   18.40800100    1.51200000
      H          19.44100000   18.27300100    2.29000000
      H          20.00600100   17.60300100    0.98900000
      O          11.22200000    4.98100000   16.83300000
      H          11.92400000    4.47500000   17.24799900
      H          10.38200000    4.76400000   17.24500100
      O           3.01000000   19.79600000    8.37500000
      H           2.66000000   20.00300000    7.50500000
      H           3.94700000   20.00000000    8.40100000
      O           0.87400000    7.79200000   -0.00500000
      H           1.45500000    8.52100000    0.22300000
      H          -0.00100000    7.95500000    0.35500000
      O           3.31100000   17.25700000    3.31900000
      H           4.14500000   17.24700000    2.84400000
      H           2.58500000   17.27500000    2.69100000
      O          14.90600000   13.75900000    0.70200000
      H          15.20200000   14.34000000   -0.00200000
      H          15.55300000   13.06300000    0.83800000
      O          19.84499900    0.92200000    1.69700000
      H          19.85199900    0.00000000    1.96100000
      H          20.00000000    1.47700000    2.46500000
      O           2.90800000    5.05900000   16.18000000
      H           2.95500000    5.60700000   16.96600000
      H           3.04600000    5.60400000   15.40100000
      O          10.05100000   16.20999900    7.99000000
      H           9.57200000   16.73399900    8.63600000
      H          10.02900000   16.65200000    7.13800000
      O           0.24900000   16.65000000   11.58000000
      H           1.06200000   16.42799900   12.04000000
      H           0.45300000   17.17700000   10.80400000
      O          10.18900000   11.43900000    3.42000000
      H          10.67300000   11.36900000    4.24600000
      H          10.11700000   12.36300000    3.16800000
      O           8.12300000    3.64000000   19.99600000
      H           7.23000000    3.28900000   20.00400000
      H           8.10000000    4.57200000   19.76800000
      O          12.95700000    0.51300000    0.53000000
      H          12.71900000    1.33000000    0.08600000
      H          13.59900000    0.03600000    0.00000000
      O          11.04700000    2.72700000   20.00799900
      H          11.98500000    2.92800000   19.97600000
      H          10.74600000    2.46300000   19.13600000
      O          18.95700100    6.92500000    9.66100000
      H          18.54000100    7.56000000    9.07500000
      H          19.46600000    6.29700000    9.14400000
      O           9.96100000   14.69200000   19.96999900
      H          10.24300000   14.62200000   19.05500000
      H           9.01000000   14.82000000   20.00400000
      O           7.21100000   16.62200000   10.94100000
      H           7.36600000   17.02000000   11.80100000
      H           6.27100000   16.46699900   10.82400000
      O           7.93200000   11.24000000   16.90800100
      H           7.65700000   10.47500000   17.41900100
      H           8.17000000   11.95500000   17.50300000
      O          11.18800000    3.25300000   10.63300000
      H          11.87000000    2.67300000   10.98000000
      H          10.48600000    3.34500000   11.28000000
      O          20.01000000    2.52400000   14.01500000
      H          19.96999900    1.68900000   14.48700000
      H          19.89600000    3.24900000   14.63400000
      O          16.30600000   12.66300000   17.50200100
      H          16.21200000   11.73500000   17.73100100
      H          15.58800000   13.16400000   17.89699900
      O           7.11000000   14.84600000    8.33100000
      H           7.31600000   15.11000000    7.43200000
      H           6.23700000   14.44600000    8.35500000
      O           7.05000000    5.54000000    5.66100000
      H           7.84500000    5.06800000    5.91700000
      H           6.85800000    6.22100000    6.31000000
      O           2.97700000    8.05800000   12.47400000
      H           2.95600000    7.84600000   13.41000000
      H           3.83200000    8.43400000   12.25000000
      O          19.30200000   12.84000000    9.26600000
      H          20.00000000   13.47200000    9.08100000
      H          18.53599900   13.30100000    9.61500000
      O          11.73700000   13.30200000   10.13400000
      H          12.57500000   12.96800000    9.80700000
      H          11.50600000   12.84700000   10.94700000
      O          16.87100000    9.63600000    0.22100000
      H          16.62599900    9.55100000    1.14500000
      H          16.98800100   10.56400000    0.00400000
      O           3.19700000   13.24600000    6.46100000
      H           4.05800000   13.05000000    6.83800000
      H           2.81200000   13.99900000    6.91600000
      O           0.30900000   15.24300000   17.03900000
      H           0.32100000   16.10300100   16.61300100
      H          -0.00100000   14.58100000   16.41700000
      O          17.01100000    8.73600000   19.95100000
      H          16.90500100    9.15400000   19.09300000
      H          17.00700000    7.78200000   19.84600100
      O           5.74800000    1.81900000   11.49000000
      H           6.33600000    1.08100000   11.31300000
      H           5.69200000    2.37800000   10.71100000
      O          17.56200000    3.00800000   12.34900000
      H          17.51000000    3.59800000   11.59400000
      H          17.30400100    3.48200000   13.14400000
      O          -0.00100000    3.09300000   19.47500000
      H           0.78900000    2.94900000   20.00099900
      H           0.24700000    3.40600000   18.60199900
      O           4.96800000    5.43100000    8.50100000
      H           5.54200000    4.95600000    9.10600000
      H           4.36500000    5.98600000    9.00100000
      O          16.15000000    5.80200000    9.51600000
      H          16.08799900    5.10200000    8.86200000
      H          15.29700000    5.92300000    9.93800000
      O          17.06300000   12.50300000   13.36300000
      H          17.01800000   12.97100000   14.20000000
      H          16.83499900   13.10200000   12.64800000
      O           4.42900000    4.32300000    0.58600000
      H           3.91700000    3.69100000    0.07600000
      H           4.82400000    4.96800000   -0.00500000
      O          13.69800000    3.57400000    7.79700000
      H          13.37500000    3.83900000    8.66100000
      H          13.07500000    2.96400000    7.39500000
      O           4.58700000   19.70800000    5.22500000
      H           4.59100000   18.80400100    5.54800000
      H           3.78300000   19.86700100    4.72600000
      O          10.04500000    0.36500000   17.10899900
      H          10.74200000   -0.00400000   16.56100100
      H           9.20000000   -0.00900000   16.84900100
      O          15.24000000    3.34200000   15.92100000
      H          14.33400000    3.57500000   15.70500000
      H          15.42000000    3.57100000   16.83600000
      O          11.53100000    2.73700000   14.15200000
      H          11.61300000    2.44400000   15.06200000
      H          11.34900000    3.67900000   14.13300000
      O           5.53000000   15.97800000    5.18300000
      H           4.82700000   15.33700000    5.05500000
      H           6.26100000   15.77400000    4.59600000
      O          10.59800000   19.99700000    6.88200000
      H          11.54200000   20.00000000    6.70500000
      H          10.44500000   19.77199900    7.80200000
      O           3.25400000    9.92900000    2.18600000
      H           3.49800000    9.23800000    2.80600000
      H           3.12900000   10.75500000    2.65800000
      O           1.99500000   14.43000000   14.18300000
      H           2.80700000   14.86500000   13.91400000
      H           2.10200000   13.47800000   14.11100000
      O          15.01900000   14.98100000    3.83300000
      H          15.40500000   15.80800000    4.13100000
      H          15.71400000   14.39700000    3.52000000
      O           4.55300000   19.97699900   13.92700000
      H           3.68700000   20.00700000   14.33900000
      H           5.23200000   20.00099900   14.60600000
      O           9.08600000   16.00000000    2.98500000
      H           8.65300000   15.17800000    2.74400000
      H           9.74700000   16.21999900    2.32400000
      O           4.31100000    2.47700000   18.96699900
      H           3.55400000    2.89100000   18.54800000
      H           4.29800000    2.66300000   19.90900000
      O           4.38700000    0.14300000   16.50099900
      H           3.59700000    0.30900000   17.02000000
      H           5.13300000    0.00000000   17.08799900
      O           9.15300000    2.61500000    8.52300000
      H           8.47200000    2.99200000    9.08500000
      H           9.27400000    3.17000000    7.74900000
      O          20.00099900    9.56800000    7.39100000
      H          19.44899900   10.18500000    7.87700000
      H          19.50300000    9.20600000    6.65400000
      O           0.08000000    7.00100000   13.51300000
      H          -0.00100000    6.05300000   13.38400000
      H          -0.00100000    7.44800000   12.66800000
      O          11.15200000    0.51500000    6.90400000
      H          10.80000000    0.00000000    7.63400000
      H          11.10600000    0.00000000    6.09600000
      O           3.79600000   19.63600000    1.00600000
      H           4.37400000   20.00200100    1.67900000
      H           4.06100000   19.96400100    0.14300000
      O          19.71100000    0.03900000   20.00000000
      H          18.75799900    0.00000000   19.89399900
      H          20.00000000    0.95400000   19.96999900
      O           0.84200000    6.49500000   19.92799900
      H           1.55300000    5.85000000   19.96100000
      H          -0.00300000    6.04500000   20.00600100
      O          19.48700000   15.03000000    3.31700000
      H          20.00099900   14.23100000    3.45500000
      H          18.65000000   14.95700000    3.78100000
      O          11.48500000   18.63400100    0.59000000
      H          11.22200000   17.92700000   -0.00500000
      H          11.67200000   19.42700000    0.08200000
      O          17.75499900   12.15400000    2.71900000
      H          17.24799900   11.67900000    3.38100000
      H          18.48100100   11.60300000    2.41600000
      O           0.58000000    0.06600000    3.71800000
      H           0.05800000    0.01300000    4.52200000
      H          -0.00100000    0.22000000    2.96900000
      O           4.41000000    1.87000000    3.57500000
      H           4.13300000    2.25800000    2.74200000
      H           4.68500000    0.96100000    3.43000000
      O          15.08500000    1.44900000   20.00000000
      H          15.72800000    0.79000000   19.73000000
      H          14.72400000    1.88300000   19.22300000
      O          14.15700000   10.34600000   19.70100000
      H          13.29300000   10.05300000   20.00000000
      H          14.31300000   11.24500000   20.00099900
      O           3.22700000    9.06500000   20.00600100
      H           4.00200000    9.58800000   19.78700100
      H           3.15300000    8.33000000   19.39300000
      O          13.17300000   11.25200000    0.11000000
      H          13.89200000   10.62600000    0.00000000
      H          13.04500000   11.43100000    1.04400000
      O          18.03200000    0.00200000    7.51600000
      H          18.31900000    0.00000000    8.43200000
      H          17.07300000    0.00000000    7.48100000
      O          17.52899900   16.11700100   16.39800100
      H          17.49700000   16.66700000   17.18499900
      H          16.81699900   15.47400000   16.42799900
      O           0.71800000    0.69600000   16.27400000
      H          -0.00600000    1.00300000   16.82500100
      H           0.40600000   -0.00500000   15.69700000
      O           3.04900000   10.23800000    6.56900000
      H           3.23400000    9.31100000    6.73500000
      H           2.92800000   10.37700000    5.62700000
      O           7.73600000    7.71400000   19.90800100
      H           8.03600000    7.47800000   19.02700000
      H           7.11900000    8.44800000   19.85000000
      O          14.09700000   14.79600000   14.81700000
      H          14.24700000   14.70500000   13.87300000
      H          14.41500000   14.01100000   15.26900000
      O          13.92000000   12.14600000    4.53100000
      H          14.12600000   11.51100000    3.84100000
      H          14.62500000   12.15100000    5.18300000
      O          -0.00400000   12.61000000    0.12500000
      H           0.49300000   11.79200000    0.04500000
      H           0.11800000   12.97400000    1.00500000
      O          13.90700000    5.42700000   19.99600000
      H          14.45200000    6.21700000   20.00099900
      H          14.13300000    4.88700000   19.23500100
      O           8.31600000   12.35500000    6.25200000
      H           8.56900000   13.05300000    5.64300000
      H           8.08800000   11.56500000    5.75600000
      O           9.79000000    1.12100000    3.53900000
      H           9.02200000    1.56000000    3.16500000
      H           9.71200000    0.17300000    3.40900000
      O           5.48000000   16.73700000   14.14400000
      H           5.65400000   15.79600000   14.07500000
      H           4.86400000   17.00000000   13.45600000
      O          10.51500000    8.35300000   16.97300000
      H          10.37400000    9.14900000   16.45500000
      H           9.90300000    7.67200000   16.68600100
      O          -0.00100000    0.37600000    7.50000000
      H           0.39000000   -0.00300000    8.29000000
      H          -0.00100000    1.33400000    7.56900000
      O          16.21299900    6.74100000   13.51000000
      H          15.84500000    5.97300000   13.95400000
      H          16.49700000    6.49500000   12.62700000
      O          15.08000000   15.82700000   11.02900000
      H          14.42800000   15.13300000   10.90900000
      H          15.85800000   15.63000000   10.50100000
      O          13.27700000    0.37300000   13.04000000
      H          14.17700000    0.22700000   13.34000000
      H          12.66200000    0.00000000   13.67600000
      O           7.76200000   18.61899900    7.10000000
      H           7.53800000   19.55299900    7.09500000
      H           7.09200000   18.13100100    7.58400000
      O          12.95400000    4.92500000    0.37000000
      H          13.49900000    4.22600000    0.00300000
      H          12.90500000    4.82700000    1.32300000
      O           5.89100000   14.25000000    0.96800000
      H           6.21100000   14.47100000    0.09100000
      H           5.60500000   15.04900000    1.41600000
      O          15.83400000   19.84499900    6.97900000
      H          15.88000000   18.95999900    6.61000000
      H          14.95400000   20.00000000    7.33100000
      O           0.80600000    2.03800000    0.11700000
      H           0.84300000    2.37900000    1.01400000
      H           0.00100000    1.53000000    0.00000000
      O           0.71600000   19.67700000    3.58300000
      H           1.36600000   20.00300000    2.95600000
      H          -0.00300000   19.25300000    3.10800000
      O          19.72100100    9.87200000   10.84800000
      H          19.44100000   10.60100000   11.40600000
      H          20.00000000    9.13700000   11.39900000
      O           9.49000000   17.54500000   14.53800000
      H          10.37700000   17.59199900   14.90100000
      H           9.01300000   18.35000000   14.75400000
      O          14.24100000    0.00000000   16.40800100
      H          15.07100000    0.02300000   16.89100100
      H          13.72600000    0.78200000   16.61700100
      O           9.75500000   -0.00400000   11.28400000
      H           9.25900000    0.65200000   10.78900000
      H          10.19100000    0.41900000   12.02800000
      O          16.40800100    0.84900000    0.67100000
      H          16.59700000    0.11200000    0.08500000
      H          16.14800100    1.61300000    0.15100000
      O           9.15200000    0.37000000   -0.00200000
      H          10.03000000    0.00000000    0.12200000
      H           8.55200000   -0.00300000    0.64800000
      O          12.55700000   19.47400100   15.73900000
      H          13.35700000   19.99900100   15.82300000
      H          11.79900000   20.00000000   16.00400000
      O          11.18700000   15.93100000   11.47500000
      H          11.55200000   15.53800000   12.27100000
      H          10.28000000   15.63700000   11.35900000
      O          16.67900100    0.21100000    4.50600000
      H          15.82100000    0.00000000    4.13200000
      H          17.36700100    0.00000000    3.86900000
      O          19.96299900   16.77300100   19.76300000
      H          19.05800100   16.98900000   20.00200100
      H          20.00300000   16.55100100   18.83000000
      O           3.59400000   17.70800000   16.26499900
      H           4.37000000   18.05100100   16.71600000
      H           2.85100000   17.69300100   16.87299900